12 16 6 10
19 15 2 11 20 4 18 7 5 7 12 19 16 16 5 20 
7.45 0.84 1.41 4.75 7.38 0.08 2.83 4.6 5.28 1.48 5.28 3.75 3.86 6.24 6.45 6.12 
3.87 0.18 6.26 7.79 3 4.42 4.61 2.48 6.62 5.84 3.52 2.12 0.48 5.07 3.78 5 
3.39 2.05 3.96 3.53 3.97 0.22 6.41 6.83 5.53 2.3 3.24 1.22 7.07 6.85 6.57 7.9 
1.08 4.06 7.11 2.43 4.95 0.89 5.78 1.18 5.13 0.12 1.85 3.3 5.53 1.82 7.93 3.33 
3.49 2.07 7.75 3.41 4.76 0.23 5.8 6.08 2.81 3.01 4.9 1.69 0.76 0.78 1.98 1.94 
5.72 4.33 1.21 7.31 0.61 1.6 5.43 7.36 3.65 1.48 7.89 6.87 7.65 5.48 6.15 5.66 
4 4 4 4 4 4 4 4 4 4 4 4 4 4 4 4 
3.41 6.65 5.46 6.95 6.25 6.19 7.28 4.81 5.78 3.63 4.85 0.12 3.52 7.82 7.52 0.22 
1.12 6.81 2.96 6.2 2.51 0.22 5 0.04 6.38 3.89 2.4 5.41 2.16 7.52 7.69 0.69 
7.82 2.38 5.09 4.56 4.59 0.52 0.15 2.58 4.44 4.65 2.34 0.44 4.64 0.82 2.15 6.53 
7.33 0.93 3.73 1.43 2.24 3.09 1.22 0.79 7.08 1.74 4.59 3.99 2.99 6.08 7.47 6.52 
1.77 0.03 5.25 0.05 7.86 2.47 1.41 7.2 2.04 5.91 1.39 0.95 7.83 4.77 2.41 1.53 
1 1 1 1 1 1 1 1 1 1 1 1 1 1 1 1 
1 1 1 1 1 1 1 1 1 1 1 1 1 1 1 1 
1 1 1 1 1 1 1 1 1 1 1 1 1 1 1 1 
1 1 1 1 1 1 1 1 1 1 1 1 1 1 1 1 
1 1 1 1 1 1 1 1 1 1 1 1 1 1 1 1 
1 1 1 1 1 1 1 1 1 1 1 1 1 1 1 1 
1 1 1 1 1 1 1 1 1 1 1 1 1 1 1 1 
1 1 1 1 1 1 1 1 1 1 1 1 1 1 1 1 
1 1 1 1 1 1 1 1 1 1 1 1 1 1 1 1 
1 1 1 1 1 1 1 1 1 1 1 1 1 1 1 1 
1 1 1 1 1 1 1 1 1 1 1 1 1 1 1 1 
1 1 1 1 1 1 1 1 1 1 1 1 1 1 1 1 
0.01 0.01 0.01 0.01 0.01 0.01 0.01 0.01 0.01 0.01 0.01 0.01 0.01 0.01 0.01 0.01 
0.02 0.02 0.02 0.02 0.02 0.02 0.02 0.02 0.02 0.02 0.02 0.02 0.02 0.02 0.02 0.02 
0.03 0.03 0.03 0.03 0.03 0.03 0.03 0.03 0.03 0.03 0.03 0.03 0.03 0.03 0.03 0.03 
0.04 0.04 0.04 0.04 0.04 0.04 0.04 0.04 0.04 0.04 0.04 0.04 0.04 0.04 0.04 0.04 
0.05 0.05 0.05 0.05 0.05 0.05 0.05 0.05 0.05 0.05 0.05 0.05 0.05 0.05 0.05 0.05 
0.06 0.06 0.06 0.06 0.06 0.06 0.06 0.06 0.06 0.06 0.06 0.06 0.06 0.06 0.06 0.06 
0.07 0.07 0.07 0.07 0.07 0.07 0.07 0.07 0.07 0.07 0.07 0.07 0.07 0.07 0.07 0.07 
0.2 0.2 0.2 0.2 0.2 0.2 0.2 0.2 0.2 0.2 0.2 0.2 0.2 0.2 0.2 0.2 
0.4 0.4 0.4 0.4 0.4 0.4 0.4 0.4 0.4 0.4 0.4 0.4 0.4 0.4 0.4 0.4 
0.6 0.6 0.6 0.6 0.6 0.6 0.6 0.6 0.6 0.6 0.6 0.6 0.6 0.6 0.6 0.6 
0.8 0.8 0.8 0.8 0.8 0.8 0.8 0.8 0.8 0.8 0.8 0.8 0.8 0.8 0.8 0.8 
1 1 1 1 1 1 1 1 1 1 1 1 1 1 1 1 
